circuits = [|
    4,26 |
    7,10 |
    4,12 |
    4,11 |
    5,9 |
    2,11 |
    2,11 |
    4,8 |
    2,10 |
    4,8 |
    3,8 |
    5,5 |
    2,7 |
    5,4 |
    2,6 |
    2,6 |
    1,6 |
    4,3 |
    4,2 |
    3,2 |
    1,4 |
    2,3 |
    2,3 |
    3,1 |
    1,3 |
|];
n = 25;
width = 15;